4 20 4440
20 13 13038
13 54 13536
54 47 18520
47 24 15612
24 42 14670
42 56 5894
56 40 3489
40 5 3130
5 32 6969
32 12 4813
12 1 10465
1 19 22804
19 49 8895
49 23 4353
23 60 7498
60 29 6419
29 25 9940
25 30 1249
30 41 5056
41 6 10602
6 11 47990
11 66 13370
66 26 57991
26 55 61621
55 34 20835
34 46 36286
46 43 69394
43 7 52950
7 67 19183
67 64 14572
64 38 25087
38 21 42598
21 3 17216
3 61 12947
61 63 29887
63 16 14689
16 59 10880
59 36 8563
36 8 11459
8 50 31557
50 28 10810
28 31 65445
31 22 39447
22 52 46274
52 33 101509
33 57 88918
57 18 27906
18 10 28652
10 14 62052
14 44 62420
44 53 84806
53 37 6554
37 62 30446
62 39 8740
39 51 11004
51 35 8926
35 68 19070
68 15 37538
15 58 6904
58 9 1777
9 17 5356
17 27 1445
27 45 8214
45 65 16726
65 2 19463
2 48 7938
48 4 7248
